0
0
282
0
1072
0
0
181
0
0
4
1
0
1
0
46
0
7
21
0
0
1
2
34
75
10
28
0
4
16
0
0
0
369
0
205
0
1
0
1
0
32
18
1
57
0
0
0
32
0
1
1
2
3520
0
3
1
0
5
0
0
0
56
45691
63
313
15
160
1
0
0
0
0
2
0
0
4
3
19
36
185
2
4
17
26
395
2
0
0
147
189
0
12
18
0
3
3
8
0
105
